\ Model kakkuro
\ LP format - for model browsing. Use MPS format to capture full model detail.
Minimize
  0 X[0,0,0] + 0 X[0,0,1] + 0 X[0,0,2] + 0 X[0,0,3] + 0 X[0,0,4]
   + 0 X[0,0,5] + 0 X[0,0,6] + 0 X[0,0,7] + 0 X[0,0,8] + 0 X[0,3,0]
   + 0 X[0,3,1] + 0 X[0,3,2] + 0 X[0,3,3] + 0 X[0,3,4] + 0 X[0,3,5]
   + 0 X[0,3,6] + 0 X[0,3,7] + 0 X[0,3,8] + 0 X[0,4,0] + 0 X[0,4,1]
   + 0 X[0,4,2] + 0 X[0,4,3] + 0 X[0,4,4] + 0 X[0,4,5] + 0 X[0,4,6]
   + 0 X[0,4,7] + 0 X[0,4,8] + 0 X[2,2,0] + 0 X[2,2,1] + 0 X[2,2,2]
   + 0 X[2,2,3] + 0 X[2,2,4] + 0 X[2,2,5] + 0 X[2,2,6] + 0 X[2,2,7]
   + 0 X[2,2,8] + 0 X[4,0,0] + 0 X[4,0,1] + 0 X[4,0,2] + 0 X[4,0,3]
   + 0 X[4,0,4] + 0 X[4,0,5] + 0 X[4,0,6] + 0 X[4,0,7] + 0 X[4,0,8]
   + 0 X[4,1,0] + 0 X[4,1,1] + 0 X[4,1,2] + 0 X[4,1,3] + 0 X[4,1,4]
   + 0 X[4,1,5] + 0 X[4,1,6] + 0 X[4,1,7] + 0 X[4,1,8] + 0 X[4,4,0]
   + 0 X[4,4,1] + 0 X[4,4,2] + 0 X[4,4,3] + 0 X[4,4,4] + 0 X[4,4,5]
   + 0 X[4,4,6] + 0 X[4,4,7] + 0 X[4,4,8]
Subject To
 CELL[0,1,0]: X[0,1,0] + X[0,1,1] + X[0,1,2] + X[0,1,3] + X[0,1,4]
   + X[0,1,5] + X[0,1,6] + X[0,1,7] + X[0,1,8] = 1
 CELL[0,1,1]: X[0,2,0] + X[0,2,1] + X[0,2,2] + X[0,2,3] + X[0,2,4]
   + X[0,2,5] + X[0,2,6] + X[0,2,7] + X[0,2,8] = 1
 CELL[1,0,0]: X[1,0,0] + X[1,0,1] + X[1,0,2] + X[1,0,3] + X[1,0,4]
   + X[1,0,5] + X[1,0,6] + X[1,0,7] + X[1,0,8] = 1
 CELL[1,0,1]: X[1,1,0] + X[1,1,1] + X[1,1,2] + X[1,1,3] + X[1,1,4]
   + X[1,1,5] + X[1,1,6] + X[1,1,7] + X[1,1,8] = 1
 CELL[1,0,2]: X[1,2,0] + X[1,2,1] + X[1,2,2] + X[1,2,3] + X[1,2,4]
   + X[1,2,5] + X[1,2,6] + X[1,2,7] + X[1,2,8] = 1
 CELL[1,0,3]: X[1,3,0] + X[1,3,1] + X[1,3,2] + X[1,3,3] + X[1,3,4]
   + X[1,3,5] + X[1,3,6] + X[1,3,7] + X[1,3,8] = 1
 CELL[1,0,4]: X[1,4,0] + X[1,4,1] + X[1,4,2] + X[1,4,3] + X[1,4,4]
   + X[1,4,5] + X[1,4,6] + X[1,4,7] + X[1,4,8] = 1
 CELL[2,0,0]: X[2,0,0] + X[2,0,1] + X[2,0,2] + X[2,0,3] + X[2,0,4]
   + X[2,0,5] + X[2,0,6] + X[2,0,7] + X[2,0,8] = 1
 CELL[2,0,1]: X[2,1,0] + X[2,1,1] + X[2,1,2] + X[2,1,3] + X[2,1,4]
   + X[2,1,5] + X[2,1,6] + X[2,1,7] + X[2,1,8] = 1
 CELL[2,3,0]: X[2,3,0] + X[2,3,1] + X[2,3,2] + X[2,3,3] + X[2,3,4]
   + X[2,3,5] + X[2,3,6] + X[2,3,7] + X[2,3,8] = 1
 CELL[2,3,1]: X[2,4,0] + X[2,4,1] + X[2,4,2] + X[2,4,3] + X[2,4,4]
   + X[2,4,5] + X[2,4,6] + X[2,4,7] + X[2,4,8] = 1
 CELL[3,0,0]: X[3,0,0] + X[3,0,1] + X[3,0,2] + X[3,0,3] + X[3,0,4]
   + X[3,0,5] + X[3,0,6] + X[3,0,7] + X[3,0,8] = 1
 CELL[3,0,1]: X[3,1,0] + X[3,1,1] + X[3,1,2] + X[3,1,3] + X[3,1,4]
   + X[3,1,5] + X[3,1,6] + X[3,1,7] + X[3,1,8] = 1
 CELL[3,0,2]: X[3,2,0] + X[3,2,1] + X[3,2,2] + X[3,2,3] + X[3,2,4]
   + X[3,2,5] + X[3,2,6] + X[3,2,7] + X[3,2,8] = 1
 CELL[3,0,3]: X[3,3,0] + X[3,3,1] + X[3,3,2] + X[3,3,3] + X[3,3,4]
   + X[3,3,5] + X[3,3,6] + X[3,3,7] + X[3,3,8] = 1
 CELL[3,0,4]: X[3,4,0] + X[3,4,1] + X[3,4,2] + X[3,4,3] + X[3,4,4]
   + X[3,4,5] + X[3,4,6] + X[3,4,7] + X[3,4,8] = 1
 CELL[4,2,0]: X[4,2,0] + X[4,2,1] + X[4,2,2] + X[4,2,3] + X[4,2,4]
   + X[4,2,5] + X[4,2,6] + X[4,2,7] + X[4,2,8] = 1
 CELL[4,2,1]: X[4,3,0] + X[4,3,1] + X[4,3,2] + X[4,3,3] + X[4,3,4]
   + X[4,3,5] + X[4,3,6] + X[4,3,7] + X[4,3,8] = 1
 R18: X[0,1,0] + X[0,2,0] <= 1
 R19: X[0,1,1] + X[0,2,1] <= 1
 R20: X[0,1,2] + X[0,2,2] <= 1
 R21: X[0,1,3] + X[0,2,3] <= 1
 R22: X[0,1,4] + X[0,2,4] <= 1
 R23: X[0,1,5] + X[0,2,5] <= 1
 R24: X[0,1,6] + X[0,2,6] <= 1
 R25: X[0,1,7] + X[0,2,7] <= 1
 R26: X[0,1,8] + X[0,2,8] <= 1
 R27: X[0,1,0] + X[0,2,0] <= 1
 R28: X[0,1,1] + X[0,2,1] <= 1
 R29: X[0,1,2] + X[0,2,2] <= 1
 R30: X[0,1,3] + X[0,2,3] <= 1
 R31: X[0,1,4] + X[0,2,4] <= 1
 R32: X[0,1,5] + X[0,2,5] <= 1
 R33: X[0,1,6] + X[0,2,6] <= 1
 R34: X[0,1,7] + X[0,2,7] <= 1
 R35: X[0,1,8] + X[0,2,8] <= 1
 R36: X[1,0,0] + X[1,1,0] <= 1
 R37: X[1,0,1] + X[1,1,1] <= 1
 R38: X[1,0,2] + X[1,1,2] <= 1
 R39: X[1,0,3] + X[1,1,3] <= 1
 R40: X[1,0,4] + X[1,1,4] <= 1
 R41: X[1,0,5] + X[1,1,5] <= 1
 R42: X[1,0,6] + X[1,1,6] <= 1
 R43: X[1,0,7] + X[1,1,7] <= 1
 R44: X[1,0,8] + X[1,1,8] <= 1
 R45: X[1,0,0] + X[1,2,0] <= 1
 R46: X[1,0,1] + X[1,2,1] <= 1
 R47: X[1,0,2] + X[1,2,2] <= 1
 R48: X[1,0,3] + X[1,2,3] <= 1
 R49: X[1,0,4] + X[1,2,4] <= 1
 R50: X[1,0,5] + X[1,2,5] <= 1
 R51: X[1,0,6] + X[1,2,6] <= 1
 R52: X[1,0,7] + X[1,2,7] <= 1
 R53: X[1,0,8] + X[1,2,8] <= 1
 R54: X[1,0,0] + X[1,3,0] <= 1
 R55: X[1,0,1] + X[1,3,1] <= 1
 R56: X[1,0,2] + X[1,3,2] <= 1
 R57: X[1,0,3] + X[1,3,3] <= 1
 R58: X[1,0,4] + X[1,3,4] <= 1
 R59: X[1,0,5] + X[1,3,5] <= 1
 R60: X[1,0,6] + X[1,3,6] <= 1
 R61: X[1,0,7] + X[1,3,7] <= 1
 R62: X[1,0,8] + X[1,3,8] <= 1
 R63: X[1,0,0] + X[1,4,0] <= 1
 R64: X[1,0,1] + X[1,4,1] <= 1
 R65: X[1,0,2] + X[1,4,2] <= 1
 R66: X[1,0,3] + X[1,4,3] <= 1
 R67: X[1,0,4] + X[1,4,4] <= 1
 R68: X[1,0,5] + X[1,4,5] <= 1
 R69: X[1,0,6] + X[1,4,6] <= 1
 R70: X[1,0,7] + X[1,4,7] <= 1
 R71: X[1,0,8] + X[1,4,8] <= 1
 R72: X[1,0,0] + X[1,1,0] <= 1
 R73: X[1,0,1] + X[1,1,1] <= 1
 R74: X[1,0,2] + X[1,1,2] <= 1
 R75: X[1,0,3] + X[1,1,3] <= 1
 R76: X[1,0,4] + X[1,1,4] <= 1
 R77: X[1,0,5] + X[1,1,5] <= 1
 R78: X[1,0,6] + X[1,1,6] <= 1
 R79: X[1,0,7] + X[1,1,7] <= 1
 R80: X[1,0,8] + X[1,1,8] <= 1
 R81: X[1,1,0] + X[1,2,0] <= 1
 R82: X[1,1,1] + X[1,2,1] <= 1
 R83: X[1,1,2] + X[1,2,2] <= 1
 R84: X[1,1,3] + X[1,2,3] <= 1
 R85: X[1,1,4] + X[1,2,4] <= 1
 R86: X[1,1,5] + X[1,2,5] <= 1
 R87: X[1,1,6] + X[1,2,6] <= 1
 R88: X[1,1,7] + X[1,2,7] <= 1
 R89: X[1,1,8] + X[1,2,8] <= 1
 R90: X[1,1,0] + X[1,3,0] <= 1
 R91: X[1,1,1] + X[1,3,1] <= 1
 R92: X[1,1,2] + X[1,3,2] <= 1
 R93: X[1,1,3] + X[1,3,3] <= 1
 R94: X[1,1,4] + X[1,3,4] <= 1
 R95: X[1,1,5] + X[1,3,5] <= 1
 R96: X[1,1,6] + X[1,3,6] <= 1
 R97: X[1,1,7] + X[1,3,7] <= 1
 R98: X[1,1,8] + X[1,3,8] <= 1
 R99: X[1,1,0] + X[1,4,0] <= 1
 R100: X[1,1,1] + X[1,4,1] <= 1
 R101: X[1,1,2] + X[1,4,2] <= 1
 R102: X[1,1,3] + X[1,4,3] <= 1
 R103: X[1,1,4] + X[1,4,4] <= 1
 R104: X[1,1,5] + X[1,4,5] <= 1
 R105: X[1,1,6] + X[1,4,6] <= 1
 R106: X[1,1,7] + X[1,4,7] <= 1
 R107: X[1,1,8] + X[1,4,8] <= 1
 R108: X[1,0,0] + X[1,2,0] <= 1
 R109: X[1,0,1] + X[1,2,1] <= 1
 R110: X[1,0,2] + X[1,2,2] <= 1
 R111: X[1,0,3] + X[1,2,3] <= 1
 R112: X[1,0,4] + X[1,2,4] <= 1
 R113: X[1,0,5] + X[1,2,5] <= 1
 R114: X[1,0,6] + X[1,2,6] <= 1
 R115: X[1,0,7] + X[1,2,7] <= 1
 R116: X[1,0,8] + X[1,2,8] <= 1
 R117: X[1,1,0] + X[1,2,0] <= 1
 R118: X[1,1,1] + X[1,2,1] <= 1
 R119: X[1,1,2] + X[1,2,2] <= 1
 R120: X[1,1,3] + X[1,2,3] <= 1
 R121: X[1,1,4] + X[1,2,4] <= 1
 R122: X[1,1,5] + X[1,2,5] <= 1
 R123: X[1,1,6] + X[1,2,6] <= 1
 R124: X[1,1,7] + X[1,2,7] <= 1
 R125: X[1,1,8] + X[1,2,8] <= 1
 R126: X[1,2,0] + X[1,3,0] <= 1
 R127: X[1,2,1] + X[1,3,1] <= 1
 R128: X[1,2,2] + X[1,3,2] <= 1
 R129: X[1,2,3] + X[1,3,3] <= 1
 R130: X[1,2,4] + X[1,3,4] <= 1
 R131: X[1,2,5] + X[1,3,5] <= 1
 R132: X[1,2,6] + X[1,3,6] <= 1
 R133: X[1,2,7] + X[1,3,7] <= 1
 R134: X[1,2,8] + X[1,3,8] <= 1
 R135: X[1,2,0] + X[1,4,0] <= 1
 R136: X[1,2,1] + X[1,4,1] <= 1
 R137: X[1,2,2] + X[1,4,2] <= 1
 R138: X[1,2,3] + X[1,4,3] <= 1
 R139: X[1,2,4] + X[1,4,4] <= 1
 R140: X[1,2,5] + X[1,4,5] <= 1
 R141: X[1,2,6] + X[1,4,6] <= 1
 R142: X[1,2,7] + X[1,4,7] <= 1
 R143: X[1,2,8] + X[1,4,8] <= 1
 R144: X[1,0,0] + X[1,3,0] <= 1
 R145: X[1,0,1] + X[1,3,1] <= 1
 R146: X[1,0,2] + X[1,3,2] <= 1
 R147: X[1,0,3] + X[1,3,3] <= 1
 R148: X[1,0,4] + X[1,3,4] <= 1
 R149: X[1,0,5] + X[1,3,5] <= 1
 R150: X[1,0,6] + X[1,3,6] <= 1
 R151: X[1,0,7] + X[1,3,7] <= 1
 R152: X[1,0,8] + X[1,3,8] <= 1
 R153: X[1,1,0] + X[1,3,0] <= 1
 R154: X[1,1,1] + X[1,3,1] <= 1
 R155: X[1,1,2] + X[1,3,2] <= 1
 R156: X[1,1,3] + X[1,3,3] <= 1
 R157: X[1,1,4] + X[1,3,4] <= 1
 R158: X[1,1,5] + X[1,3,5] <= 1
 R159: X[1,1,6] + X[1,3,6] <= 1
 R160: X[1,1,7] + X[1,3,7] <= 1
 R161: X[1,1,8] + X[1,3,8] <= 1
 R162: X[1,2,0] + X[1,3,0] <= 1
 R163: X[1,2,1] + X[1,3,1] <= 1
 R164: X[1,2,2] + X[1,3,2] <= 1
 R165: X[1,2,3] + X[1,3,3] <= 1
 R166: X[1,2,4] + X[1,3,4] <= 1
 R167: X[1,2,5] + X[1,3,5] <= 1
 R168: X[1,2,6] + X[1,3,6] <= 1
 R169: X[1,2,7] + X[1,3,7] <= 1
 R170: X[1,2,8] + X[1,3,8] <= 1
 R171: X[1,3,0] + X[1,4,0] <= 1
 R172: X[1,3,1] + X[1,4,1] <= 1
 R173: X[1,3,2] + X[1,4,2] <= 1
 R174: X[1,3,3] + X[1,4,3] <= 1
 R175: X[1,3,4] + X[1,4,4] <= 1
 R176: X[1,3,5] + X[1,4,5] <= 1
 R177: X[1,3,6] + X[1,4,6] <= 1
 R178: X[1,3,7] + X[1,4,7] <= 1
 R179: X[1,3,8] + X[1,4,8] <= 1
 R180: X[1,0,0] + X[1,4,0] <= 1
 R181: X[1,0,1] + X[1,4,1] <= 1
 R182: X[1,0,2] + X[1,4,2] <= 1
 R183: X[1,0,3] + X[1,4,3] <= 1
 R184: X[1,0,4] + X[1,4,4] <= 1
 R185: X[1,0,5] + X[1,4,5] <= 1
 R186: X[1,0,6] + X[1,4,6] <= 1
 R187: X[1,0,7] + X[1,4,7] <= 1
 R188: X[1,0,8] + X[1,4,8] <= 1
 R189: X[1,1,0] + X[1,4,0] <= 1
 R190: X[1,1,1] + X[1,4,1] <= 1
 R191: X[1,1,2] + X[1,4,2] <= 1
 R192: X[1,1,3] + X[1,4,3] <= 1
 R193: X[1,1,4] + X[1,4,4] <= 1
 R194: X[1,1,5] + X[1,4,5] <= 1
 R195: X[1,1,6] + X[1,4,6] <= 1
 R196: X[1,1,7] + X[1,4,7] <= 1
 R197: X[1,1,8] + X[1,4,8] <= 1
 R198: X[1,2,0] + X[1,4,0] <= 1
 R199: X[1,2,1] + X[1,4,1] <= 1
 R200: X[1,2,2] + X[1,4,2] <= 1
 R201: X[1,2,3] + X[1,4,3] <= 1
 R202: X[1,2,4] + X[1,4,4] <= 1
 R203: X[1,2,5] + X[1,4,5] <= 1
 R204: X[1,2,6] + X[1,4,6] <= 1
 R205: X[1,2,7] + X[1,4,7] <= 1
 R206: X[1,2,8] + X[1,4,8] <= 1
 R207: X[1,3,0] + X[1,4,0] <= 1
 R208: X[1,3,1] + X[1,4,1] <= 1
 R209: X[1,3,2] + X[1,4,2] <= 1
 R210: X[1,3,3] + X[1,4,3] <= 1
 R211: X[1,3,4] + X[1,4,4] <= 1
 R212: X[1,3,5] + X[1,4,5] <= 1
 R213: X[1,3,6] + X[1,4,6] <= 1
 R214: X[1,3,7] + X[1,4,7] <= 1
 R215: X[1,3,8] + X[1,4,8] <= 1
 R216: X[2,0,0] + X[2,1,0] <= 1
 R217: X[2,0,1] + X[2,1,1] <= 1
 R218: X[2,0,2] + X[2,1,2] <= 1
 R219: X[2,0,3] + X[2,1,3] <= 1
 R220: X[2,0,4] + X[2,1,4] <= 1
 R221: X[2,0,5] + X[2,1,5] <= 1
 R222: X[2,0,6] + X[2,1,6] <= 1
 R223: X[2,0,7] + X[2,1,7] <= 1
 R224: X[2,0,8] + X[2,1,8] <= 1
 R225: X[2,0,0] + X[2,3,0] <= 1
 R226: X[2,0,1] + X[2,3,1] <= 1
 R227: X[2,0,2] + X[2,3,2] <= 1
 R228: X[2,0,3] + X[2,3,3] <= 1
 R229: X[2,0,4] + X[2,3,4] <= 1
 R230: X[2,0,5] + X[2,3,5] <= 1
 R231: X[2,0,6] + X[2,3,6] <= 1
 R232: X[2,0,7] + X[2,3,7] <= 1
 R233: X[2,0,8] + X[2,3,8] <= 1
 R234: X[2,0,0] + X[2,4,0] <= 1
 R235: X[2,0,1] + X[2,4,1] <= 1
 R236: X[2,0,2] + X[2,4,2] <= 1
 R237: X[2,0,3] + X[2,4,3] <= 1
 R238: X[2,0,4] + X[2,4,4] <= 1
 R239: X[2,0,5] + X[2,4,5] <= 1
 R240: X[2,0,6] + X[2,4,6] <= 1
 R241: X[2,0,7] + X[2,4,7] <= 1
 R242: X[2,0,8] + X[2,4,8] <= 1
 R243: X[2,0,0] + X[2,1,0] <= 1
 R244: X[2,0,1] + X[2,1,1] <= 1
 R245: X[2,0,2] + X[2,1,2] <= 1
 R246: X[2,0,3] + X[2,1,3] <= 1
 R247: X[2,0,4] + X[2,1,4] <= 1
 R248: X[2,0,5] + X[2,1,5] <= 1
 R249: X[2,0,6] + X[2,1,6] <= 1
 R250: X[2,0,7] + X[2,1,7] <= 1
 R251: X[2,0,8] + X[2,1,8] <= 1
 R252: X[2,1,0] + X[2,3,0] <= 1
 R253: X[2,1,1] + X[2,3,1] <= 1
 R254: X[2,1,2] + X[2,3,2] <= 1
 R255: X[2,1,3] + X[2,3,3] <= 1
 R256: X[2,1,4] + X[2,3,4] <= 1
 R257: X[2,1,5] + X[2,3,5] <= 1
 R258: X[2,1,6] + X[2,3,6] <= 1
 R259: X[2,1,7] + X[2,3,7] <= 1
 R260: X[2,1,8] + X[2,3,8] <= 1
 R261: X[2,1,0] + X[2,4,0] <= 1
 R262: X[2,1,1] + X[2,4,1] <= 1
 R263: X[2,1,2] + X[2,4,2] <= 1
 R264: X[2,1,3] + X[2,4,3] <= 1
 R265: X[2,1,4] + X[2,4,4] <= 1
 R266: X[2,1,5] + X[2,4,5] <= 1
 R267: X[2,1,6] + X[2,4,6] <= 1
 R268: X[2,1,7] + X[2,4,7] <= 1
 R269: X[2,1,8] + X[2,4,8] <= 1
 R270: X[2,0,0] + X[2,3,0] <= 1
 R271: X[2,0,1] + X[2,3,1] <= 1
 R272: X[2,0,2] + X[2,3,2] <= 1
 R273: X[2,0,3] + X[2,3,3] <= 1
 R274: X[2,0,4] + X[2,3,4] <= 1
 R275: X[2,0,5] + X[2,3,5] <= 1
 R276: X[2,0,6] + X[2,3,6] <= 1
 R277: X[2,0,7] + X[2,3,7] <= 1
 R278: X[2,0,8] + X[2,3,8] <= 1
 R279: X[2,1,0] + X[2,3,0] <= 1
 R280: X[2,1,1] + X[2,3,1] <= 1
 R281: X[2,1,2] + X[2,3,2] <= 1
 R282: X[2,1,3] + X[2,3,3] <= 1
 R283: X[2,1,4] + X[2,3,4] <= 1
 R284: X[2,1,5] + X[2,3,5] <= 1
 R285: X[2,1,6] + X[2,3,6] <= 1
 R286: X[2,1,7] + X[2,3,7] <= 1
 R287: X[2,1,8] + X[2,3,8] <= 1
 R288: X[2,3,0] + X[2,4,0] <= 1
 R289: X[2,3,1] + X[2,4,1] <= 1
 R290: X[2,3,2] + X[2,4,2] <= 1
 R291: X[2,3,3] + X[2,4,3] <= 1
 R292: X[2,3,4] + X[2,4,4] <= 1
 R293: X[2,3,5] + X[2,4,5] <= 1
 R294: X[2,3,6] + X[2,4,6] <= 1
 R295: X[2,3,7] + X[2,4,7] <= 1
 R296: X[2,3,8] + X[2,4,8] <= 1
 R297: X[2,0,0] + X[2,4,0] <= 1
 R298: X[2,0,1] + X[2,4,1] <= 1
 R299: X[2,0,2] + X[2,4,2] <= 1
 R300: X[2,0,3] + X[2,4,3] <= 1
 R301: X[2,0,4] + X[2,4,4] <= 1
 R302: X[2,0,5] + X[2,4,5] <= 1
 R303: X[2,0,6] + X[2,4,6] <= 1
 R304: X[2,0,7] + X[2,4,7] <= 1
 R305: X[2,0,8] + X[2,4,8] <= 1
 R306: X[2,1,0] + X[2,4,0] <= 1
 R307: X[2,1,1] + X[2,4,1] <= 1
 R308: X[2,1,2] + X[2,4,2] <= 1
 R309: X[2,1,3] + X[2,4,3] <= 1
 R310: X[2,1,4] + X[2,4,4] <= 1
 R311: X[2,1,5] + X[2,4,5] <= 1
 R312: X[2,1,6] + X[2,4,6] <= 1
 R313: X[2,1,7] + X[2,4,7] <= 1
 R314: X[2,1,8] + X[2,4,8] <= 1
 R315: X[2,3,0] + X[2,4,0] <= 1
 R316: X[2,3,1] + X[2,4,1] <= 1
 R317: X[2,3,2] + X[2,4,2] <= 1
 R318: X[2,3,3] + X[2,4,3] <= 1
 R319: X[2,3,4] + X[2,4,4] <= 1
 R320: X[2,3,5] + X[2,4,5] <= 1
 R321: X[2,3,6] + X[2,4,6] <= 1
 R322: X[2,3,7] + X[2,4,7] <= 1
 R323: X[2,3,8] + X[2,4,8] <= 1
 R324: X[3,0,0] + X[3,1,0] <= 1
 R325: X[3,0,1] + X[3,1,1] <= 1
 R326: X[3,0,2] + X[3,1,2] <= 1
 R327: X[3,0,3] + X[3,1,3] <= 1
 R328: X[3,0,4] + X[3,1,4] <= 1
 R329: X[3,0,5] + X[3,1,5] <= 1
 R330: X[3,0,6] + X[3,1,6] <= 1
 R331: X[3,0,7] + X[3,1,7] <= 1
 R332: X[3,0,8] + X[3,1,8] <= 1
 R333: X[3,0,0] + X[3,2,0] <= 1
 R334: X[3,0,1] + X[3,2,1] <= 1
 R335: X[3,0,2] + X[3,2,2] <= 1
 R336: X[3,0,3] + X[3,2,3] <= 1
 R337: X[3,0,4] + X[3,2,4] <= 1
 R338: X[3,0,5] + X[3,2,5] <= 1
 R339: X[3,0,6] + X[3,2,6] <= 1
 R340: X[3,0,7] + X[3,2,7] <= 1
 R341: X[3,0,8] + X[3,2,8] <= 1
 R342: X[3,0,0] + X[3,3,0] <= 1
 R343: X[3,0,1] + X[3,3,1] <= 1
 R344: X[3,0,2] + X[3,3,2] <= 1
 R345: X[3,0,3] + X[3,3,3] <= 1
 R346: X[3,0,4] + X[3,3,4] <= 1
 R347: X[3,0,5] + X[3,3,5] <= 1
 R348: X[3,0,6] + X[3,3,6] <= 1
 R349: X[3,0,7] + X[3,3,7] <= 1
 R350: X[3,0,8] + X[3,3,8] <= 1
 R351: X[3,0,0] + X[3,4,0] <= 1
 R352: X[3,0,1] + X[3,4,1] <= 1
 R353: X[3,0,2] + X[3,4,2] <= 1
 R354: X[3,0,3] + X[3,4,3] <= 1
 R355: X[3,0,4] + X[3,4,4] <= 1
 R356: X[3,0,5] + X[3,4,5] <= 1
 R357: X[3,0,6] + X[3,4,6] <= 1
 R358: X[3,0,7] + X[3,4,7] <= 1
 R359: X[3,0,8] + X[3,4,8] <= 1
 R360: X[3,0,0] + X[3,1,0] <= 1
 R361: X[3,0,1] + X[3,1,1] <= 1
 R362: X[3,0,2] + X[3,1,2] <= 1
 R363: X[3,0,3] + X[3,1,3] <= 1
 R364: X[3,0,4] + X[3,1,4] <= 1
 R365: X[3,0,5] + X[3,1,5] <= 1
 R366: X[3,0,6] + X[3,1,6] <= 1
 R367: X[3,0,7] + X[3,1,7] <= 1
 R368: X[3,0,8] + X[3,1,8] <= 1
 R369: X[3,1,0] + X[3,2,0] <= 1
 R370: X[3,1,1] + X[3,2,1] <= 1
 R371: X[3,1,2] + X[3,2,2] <= 1
 R372: X[3,1,3] + X[3,2,3] <= 1
 R373: X[3,1,4] + X[3,2,4] <= 1
 R374: X[3,1,5] + X[3,2,5] <= 1
 R375: X[3,1,6] + X[3,2,6] <= 1
 R376: X[3,1,7] + X[3,2,7] <= 1
 R377: X[3,1,8] + X[3,2,8] <= 1
 R378: X[3,1,0] + X[3,3,0] <= 1
 R379: X[3,1,1] + X[3,3,1] <= 1
 R380: X[3,1,2] + X[3,3,2] <= 1
 R381: X[3,1,3] + X[3,3,3] <= 1
 R382: X[3,1,4] + X[3,3,4] <= 1
 R383: X[3,1,5] + X[3,3,5] <= 1
 R384: X[3,1,6] + X[3,3,6] <= 1
 R385: X[3,1,7] + X[3,3,7] <= 1
 R386: X[3,1,8] + X[3,3,8] <= 1
 R387: X[3,1,0] + X[3,4,0] <= 1
 R388: X[3,1,1] + X[3,4,1] <= 1
 R389: X[3,1,2] + X[3,4,2] <= 1
 R390: X[3,1,3] + X[3,4,3] <= 1
 R391: X[3,1,4] + X[3,4,4] <= 1
 R392: X[3,1,5] + X[3,4,5] <= 1
 R393: X[3,1,6] + X[3,4,6] <= 1
 R394: X[3,1,7] + X[3,4,7] <= 1
 R395: X[3,1,8] + X[3,4,8] <= 1
 R396: X[3,0,0] + X[3,2,0] <= 1
 R397: X[3,0,1] + X[3,2,1] <= 1
 R398: X[3,0,2] + X[3,2,2] <= 1
 R399: X[3,0,3] + X[3,2,3] <= 1
 R400: X[3,0,4] + X[3,2,4] <= 1
 R401: X[3,0,5] + X[3,2,5] <= 1
 R402: X[3,0,6] + X[3,2,6] <= 1
 R403: X[3,0,7] + X[3,2,7] <= 1
 R404: X[3,0,8] + X[3,2,8] <= 1
 R405: X[3,1,0] + X[3,2,0] <= 1
 R406: X[3,1,1] + X[3,2,1] <= 1
 R407: X[3,1,2] + X[3,2,2] <= 1
 R408: X[3,1,3] + X[3,2,3] <= 1
 R409: X[3,1,4] + X[3,2,4] <= 1
 R410: X[3,1,5] + X[3,2,5] <= 1
 R411: X[3,1,6] + X[3,2,6] <= 1
 R412: X[3,1,7] + X[3,2,7] <= 1
 R413: X[3,1,8] + X[3,2,8] <= 1
 R414: X[3,2,0] + X[3,3,0] <= 1
 R415: X[3,2,1] + X[3,3,1] <= 1
 R416: X[3,2,2] + X[3,3,2] <= 1
 R417: X[3,2,3] + X[3,3,3] <= 1
 R418: X[3,2,4] + X[3,3,4] <= 1
 R419: X[3,2,5] + X[3,3,5] <= 1
 R420: X[3,2,6] + X[3,3,6] <= 1
 R421: X[3,2,7] + X[3,3,7] <= 1
 R422: X[3,2,8] + X[3,3,8] <= 1
 R423: X[3,2,0] + X[3,4,0] <= 1
 R424: X[3,2,1] + X[3,4,1] <= 1
 R425: X[3,2,2] + X[3,4,2] <= 1
 R426: X[3,2,3] + X[3,4,3] <= 1
 R427: X[3,2,4] + X[3,4,4] <= 1
 R428: X[3,2,5] + X[3,4,5] <= 1
 R429: X[3,2,6] + X[3,4,6] <= 1
 R430: X[3,2,7] + X[3,4,7] <= 1
 R431: X[3,2,8] + X[3,4,8] <= 1
 R432: X[3,0,0] + X[3,3,0] <= 1
 R433: X[3,0,1] + X[3,3,1] <= 1
 R434: X[3,0,2] + X[3,3,2] <= 1
 R435: X[3,0,3] + X[3,3,3] <= 1
 R436: X[3,0,4] + X[3,3,4] <= 1
 R437: X[3,0,5] + X[3,3,5] <= 1
 R438: X[3,0,6] + X[3,3,6] <= 1
 R439: X[3,0,7] + X[3,3,7] <= 1
 R440: X[3,0,8] + X[3,3,8] <= 1
 R441: X[3,1,0] + X[3,3,0] <= 1
 R442: X[3,1,1] + X[3,3,1] <= 1
 R443: X[3,1,2] + X[3,3,2] <= 1
 R444: X[3,1,3] + X[3,3,3] <= 1
 R445: X[3,1,4] + X[3,3,4] <= 1
 R446: X[3,1,5] + X[3,3,5] <= 1
 R447: X[3,1,6] + X[3,3,6] <= 1
 R448: X[3,1,7] + X[3,3,7] <= 1
 R449: X[3,1,8] + X[3,3,8] <= 1
 R450: X[3,2,0] + X[3,3,0] <= 1
 R451: X[3,2,1] + X[3,3,1] <= 1
 R452: X[3,2,2] + X[3,3,2] <= 1
 R453: X[3,2,3] + X[3,3,3] <= 1
 R454: X[3,2,4] + X[3,3,4] <= 1
 R455: X[3,2,5] + X[3,3,5] <= 1
 R456: X[3,2,6] + X[3,3,6] <= 1
 R457: X[3,2,7] + X[3,3,7] <= 1
 R458: X[3,2,8] + X[3,3,8] <= 1
 R459: X[3,3,0] + X[3,4,0] <= 1
 R460: X[3,3,1] + X[3,4,1] <= 1
 R461: X[3,3,2] + X[3,4,2] <= 1
 R462: X[3,3,3] + X[3,4,3] <= 1
 R463: X[3,3,4] + X[3,4,4] <= 1
 R464: X[3,3,5] + X[3,4,5] <= 1
 R465: X[3,3,6] + X[3,4,6] <= 1
 R466: X[3,3,7] + X[3,4,7] <= 1
 R467: X[3,3,8] + X[3,4,8] <= 1
 R468: X[3,0,0] + X[3,4,0] <= 1
 R469: X[3,0,1] + X[3,4,1] <= 1
 R470: X[3,0,2] + X[3,4,2] <= 1
 R471: X[3,0,3] + X[3,4,3] <= 1
 R472: X[3,0,4] + X[3,4,4] <= 1
 R473: X[3,0,5] + X[3,4,5] <= 1
 R474: X[3,0,6] + X[3,4,6] <= 1
 R475: X[3,0,7] + X[3,4,7] <= 1
 R476: X[3,0,8] + X[3,4,8] <= 1
 R477: X[3,1,0] + X[3,4,0] <= 1
 R478: X[3,1,1] + X[3,4,1] <= 1
 R479: X[3,1,2] + X[3,4,2] <= 1
 R480: X[3,1,3] + X[3,4,3] <= 1
 R481: X[3,1,4] + X[3,4,4] <= 1
 R482: X[3,1,5] + X[3,4,5] <= 1
 R483: X[3,1,6] + X[3,4,6] <= 1
 R484: X[3,1,7] + X[3,4,7] <= 1
 R485: X[3,1,8] + X[3,4,8] <= 1
 R486: X[3,2,0] + X[3,4,0] <= 1
 R487: X[3,2,1] + X[3,4,1] <= 1
 R488: X[3,2,2] + X[3,4,2] <= 1
 R489: X[3,2,3] + X[3,4,3] <= 1
 R490: X[3,2,4] + X[3,4,4] <= 1
 R491: X[3,2,5] + X[3,4,5] <= 1
 R492: X[3,2,6] + X[3,4,6] <= 1
 R493: X[3,2,7] + X[3,4,7] <= 1
 R494: X[3,2,8] + X[3,4,8] <= 1
 R495: X[3,3,0] + X[3,4,0] <= 1
 R496: X[3,3,1] + X[3,4,1] <= 1
 R497: X[3,3,2] + X[3,4,2] <= 1
 R498: X[3,3,3] + X[3,4,3] <= 1
 R499: X[3,3,4] + X[3,4,4] <= 1
 R500: X[3,3,5] + X[3,4,5] <= 1
 R501: X[3,3,6] + X[3,4,6] <= 1
 R502: X[3,3,7] + X[3,4,7] <= 1
 R503: X[3,3,8] + X[3,4,8] <= 1
 R504: X[4,2,0] + X[4,3,0] <= 1
 R505: X[4,2,1] + X[4,3,1] <= 1
 R506: X[4,2,2] + X[4,3,2] <= 1
 R507: X[4,2,3] + X[4,3,3] <= 1
 R508: X[4,2,4] + X[4,3,4] <= 1
 R509: X[4,2,5] + X[4,3,5] <= 1
 R510: X[4,2,6] + X[4,3,6] <= 1
 R511: X[4,2,7] + X[4,3,7] <= 1
 R512: X[4,2,8] + X[4,3,8] <= 1
 R513: X[4,2,0] + X[4,3,0] <= 1
 R514: X[4,2,1] + X[4,3,1] <= 1
 R515: X[4,2,2] + X[4,3,2] <= 1
 R516: X[4,2,3] + X[4,3,3] <= 1
 R517: X[4,2,4] + X[4,3,4] <= 1
 R518: X[4,2,5] + X[4,3,5] <= 1
 R519: X[4,2,6] + X[4,3,6] <= 1
 R520: X[4,2,7] + X[4,3,7] <= 1
 R521: X[4,2,8] + X[4,3,8] <= 1
 H_SUM[0,1]: X[0,1,0] + 2 X[0,1,1] + 3 X[0,1,2] + 4 X[0,1,3] + 5 X[0,1,4]
   + 6 X[0,1,5] + 7 X[0,1,6] + 8 X[0,1,7] + 9 X[0,1,8] + X[0,2,0]
   + 2 X[0,2,1] + 3 X[0,2,2] + 4 X[0,2,3] + 5 X[0,2,4] + 6 X[0,2,5]
   + 7 X[0,2,6] + 8 X[0,2,7] + 9 X[0,2,8] = 3
 H_SUM[1,0]: X[1,0,0] + 2 X[1,0,1] + 3 X[1,0,2] + 4 X[1,0,3] + 5 X[1,0,4]
   + 6 X[1,0,5] + 7 X[1,0,6] + 8 X[1,0,7] + 9 X[1,0,8] + X[1,1,0]
   + 2 X[1,1,1] + 3 X[1,1,2] + 4 X[1,1,3] + 5 X[1,1,4] + 6 X[1,1,5]
   + 7 X[1,1,6] + 8 X[1,1,7] + 9 X[1,1,8] + X[1,2,0] + 2 X[1,2,1]
   + 3 X[1,2,2] + 4 X[1,2,3] + 5 X[1,2,4] + 6 X[1,2,5] + 7 X[1,2,6]
   + 8 X[1,2,7] + 9 X[1,2,8] + X[1,3,0] + 2 X[1,3,1] + 3 X[1,3,2]
   + 4 X[1,3,3] + 5 X[1,3,4] + 6 X[1,3,5] + 7 X[1,3,6] + 8 X[1,3,7]
   + 9 X[1,3,8] + X[1,4,0] + 2 X[1,4,1] + 3 X[1,4,2] + 4 X[1,4,3]
   + 5 X[1,4,4] + 6 X[1,4,5] + 7 X[1,4,6] + 8 X[1,4,7] + 9 X[1,4,8] = 16
 H_SUM[2,0]: X[2,0,0] + 2 X[2,0,1] + 3 X[2,0,2] + 4 X[2,0,3] + 5 X[2,0,4]
   + 6 X[2,0,5] + 7 X[2,0,6] + 8 X[2,0,7] + 9 X[2,0,8] + X[2,1,0]
   + 2 X[2,1,1] + 3 X[2,1,2] + 4 X[2,1,3] + 5 X[2,1,4] + 6 X[2,1,5]
   + 7 X[2,1,6] + 8 X[2,1,7] + 9 X[2,1,8] = 3
 H_SUM[2,3]: X[2,3,0] + 2 X[2,3,1] + 3 X[2,3,2] + 4 X[2,3,3] + 5 X[2,3,4]
   + 6 X[2,3,5] + 7 X[2,3,6] + 8 X[2,3,7] + 9 X[2,3,8] + X[2,4,0]
   + 2 X[2,4,1] + 3 X[2,4,2] + 4 X[2,4,3] + 5 X[2,4,4] + 6 X[2,4,5]
   + 7 X[2,4,6] + 8 X[2,4,7] + 9 X[2,4,8] = 13
 H_SUM[3,0]: X[3,0,0] + 2 X[3,0,1] + 3 X[3,0,2] + 4 X[3,0,3] + 5 X[3,0,4]
   + 6 X[3,0,5] + 7 X[3,0,6] + 8 X[3,0,7] + 9 X[3,0,8] + X[3,1,0]
   + 2 X[3,1,1] + 3 X[3,1,2] + 4 X[3,1,3] + 5 X[3,1,4] + 6 X[3,1,5]
   + 7 X[3,1,6] + 8 X[3,1,7] + 9 X[3,1,8] + X[3,2,0] + 2 X[3,2,1]
   + 3 X[3,2,2] + 4 X[3,2,3] + 5 X[3,2,4] + 6 X[3,2,5] + 7 X[3,2,6]
   + 8 X[3,2,7] + 9 X[3,2,8] + X[3,3,0] + 2 X[3,3,1] + 3 X[3,3,2]
   + 4 X[3,3,3] + 5 X[3,3,4] + 6 X[3,3,5] + 7 X[3,3,6] + 8 X[3,3,7]
   + 9 X[3,3,8] + X[3,4,0] + 2 X[3,4,1] + 3 X[3,4,2] + 4 X[3,4,3]
   + 5 X[3,4,4] + 6 X[3,4,5] + 7 X[3,4,6] + 8 X[3,4,7] + 9 X[3,4,8] = 17
 H_SUM[4,2]: X[4,2,0] + 2 X[4,2,1] + 3 X[4,2,2] + 4 X[4,2,3] + 5 X[4,2,4]
   + 6 X[4,2,5] + 7 X[4,2,6] + 8 X[4,2,7] + 9 X[4,2,8] + X[4,3,0]
   + 2 X[4,3,1] + 3 X[4,3,2] + 4 X[4,3,3] + 5 X[4,3,4] + 6 X[4,3,5]
   + 7 X[4,3,6] + 8 X[4,3,7] + 9 X[4,3,8] = 16
 R528: X[0,1,0] + X[1,1,0] <= 1
 R529: X[0,1,1] + X[1,1,1] <= 1
 R530: X[0,1,2] + X[1,1,2] <= 1
 R531: X[0,1,3] + X[1,1,3] <= 1
 R532: X[0,1,4] + X[1,1,4] <= 1
 R533: X[0,1,5] + X[1,1,5] <= 1
 R534: X[0,1,6] + X[1,1,6] <= 1
 R535: X[0,1,7] + X[1,1,7] <= 1
 R536: X[0,1,8] + X[1,1,8] <= 1
 R537: X[0,2,0] + X[1,2,0] <= 1
 R538: X[0,2,1] + X[1,2,1] <= 1
 R539: X[0,2,2] + X[1,2,2] <= 1
 R540: X[0,2,3] + X[1,2,3] <= 1
 R541: X[0,2,4] + X[1,2,4] <= 1
 R542: X[0,2,5] + X[1,2,5] <= 1
 R543: X[0,2,6] + X[1,2,6] <= 1
 R544: X[0,2,7] + X[1,2,7] <= 1
 R545: X[0,2,8] + X[1,2,8] <= 1
 R546: X[0,1,0] + X[2,1,0] <= 1
 R547: X[0,1,1] + X[2,1,1] <= 1
 R548: X[0,1,2] + X[2,1,2] <= 1
 R549: X[0,1,3] + X[2,1,3] <= 1
 R550: X[0,1,4] + X[2,1,4] <= 1
 R551: X[0,1,5] + X[2,1,5] <= 1
 R552: X[0,1,6] + X[2,1,6] <= 1
 R553: X[0,1,7] + X[2,1,7] <= 1
 R554: X[0,1,8] + X[2,1,8] <= 1
 R555: X[0,1,0] + X[3,1,0] <= 1
 R556: X[0,1,1] + X[3,1,1] <= 1
 R557: X[0,1,2] + X[3,1,2] <= 1
 R558: X[0,1,3] + X[3,1,3] <= 1
 R559: X[0,1,4] + X[3,1,4] <= 1
 R560: X[0,1,5] + X[3,1,5] <= 1
 R561: X[0,1,6] + X[3,1,6] <= 1
 R562: X[0,1,7] + X[3,1,7] <= 1
 R563: X[0,1,8] + X[3,1,8] <= 1
 R564: X[0,2,0] + X[3,2,0] <= 1
 R565: X[0,2,1] + X[3,2,1] <= 1
 R566: X[0,2,2] + X[3,2,2] <= 1
 R567: X[0,2,3] + X[3,2,3] <= 1
 R568: X[0,2,4] + X[3,2,4] <= 1
 R569: X[0,2,5] + X[3,2,5] <= 1
 R570: X[0,2,6] + X[3,2,6] <= 1
 R571: X[0,2,7] + X[3,2,7] <= 1
 R572: X[0,2,8] + X[3,2,8] <= 1
 R573: X[0,2,0] + X[4,2,0] <= 1
 R574: X[0,2,1] + X[4,2,1] <= 1
 R575: X[0,2,2] + X[4,2,2] <= 1
 R576: X[0,2,3] + X[4,2,3] <= 1
 R577: X[0,2,4] + X[4,2,4] <= 1
 R578: X[0,2,5] + X[4,2,5] <= 1
 R579: X[0,2,6] + X[4,2,6] <= 1
 R580: X[0,2,7] + X[4,2,7] <= 1
 R581: X[0,2,8] + X[4,2,8] <= 1
 R582: X[0,1,0] + X[1,1,0] <= 1
 R583: X[0,1,1] + X[1,1,1] <= 1
 R584: X[0,1,2] + X[1,1,2] <= 1
 R585: X[0,1,3] + X[1,1,3] <= 1
 R586: X[0,1,4] + X[1,1,4] <= 1
 R587: X[0,1,5] + X[1,1,5] <= 1
 R588: X[0,1,6] + X[1,1,6] <= 1
 R589: X[0,1,7] + X[1,1,7] <= 1
 R590: X[0,1,8] + X[1,1,8] <= 1
 R591: X[0,2,0] + X[1,2,0] <= 1
 R592: X[0,2,1] + X[1,2,1] <= 1
 R593: X[0,2,2] + X[1,2,2] <= 1
 R594: X[0,2,3] + X[1,2,3] <= 1
 R595: X[0,2,4] + X[1,2,4] <= 1
 R596: X[0,2,5] + X[1,2,5] <= 1
 R597: X[0,2,6] + X[1,2,6] <= 1
 R598: X[0,2,7] + X[1,2,7] <= 1
 R599: X[0,2,8] + X[1,2,8] <= 1
 R600: X[1,0,0] + X[2,0,0] <= 1
 R601: X[1,0,1] + X[2,0,1] <= 1
 R602: X[1,0,2] + X[2,0,2] <= 1
 R603: X[1,0,3] + X[2,0,3] <= 1
 R604: X[1,0,4] + X[2,0,4] <= 1
 R605: X[1,0,5] + X[2,0,5] <= 1
 R606: X[1,0,6] + X[2,0,6] <= 1
 R607: X[1,0,7] + X[2,0,7] <= 1
 R608: X[1,0,8] + X[2,0,8] <= 1
 R609: X[1,1,0] + X[2,1,0] <= 1
 R610: X[1,1,1] + X[2,1,1] <= 1
 R611: X[1,1,2] + X[2,1,2] <= 1
 R612: X[1,1,3] + X[2,1,3] <= 1
 R613: X[1,1,4] + X[2,1,4] <= 1
 R614: X[1,1,5] + X[2,1,5] <= 1
 R615: X[1,1,6] + X[2,1,6] <= 1
 R616: X[1,1,7] + X[2,1,7] <= 1
 R617: X[1,1,8] + X[2,1,8] <= 1
 R618: X[1,3,0] + X[2,3,0] <= 1
 R619: X[1,3,1] + X[2,3,1] <= 1
 R620: X[1,3,2] + X[2,3,2] <= 1
 R621: X[1,3,3] + X[2,3,3] <= 1
 R622: X[1,3,4] + X[2,3,4] <= 1
 R623: X[1,3,5] + X[2,3,5] <= 1
 R624: X[1,3,6] + X[2,3,6] <= 1
 R625: X[1,3,7] + X[2,3,7] <= 1
 R626: X[1,3,8] + X[2,3,8] <= 1
 R627: X[1,4,0] + X[2,4,0] <= 1
 R628: X[1,4,1] + X[2,4,1] <= 1
 R629: X[1,4,2] + X[2,4,2] <= 1
 R630: X[1,4,3] + X[2,4,3] <= 1
 R631: X[1,4,4] + X[2,4,4] <= 1
 R632: X[1,4,5] + X[2,4,5] <= 1
 R633: X[1,4,6] + X[2,4,6] <= 1
 R634: X[1,4,7] + X[2,4,7] <= 1
 R635: X[1,4,8] + X[2,4,8] <= 1
 R636: X[1,0,0] + X[3,0,0] <= 1
 R637: X[1,0,1] + X[3,0,1] <= 1
 R638: X[1,0,2] + X[3,0,2] <= 1
 R639: X[1,0,3] + X[3,0,3] <= 1
 R640: X[1,0,4] + X[3,0,4] <= 1
 R641: X[1,0,5] + X[3,0,5] <= 1
 R642: X[1,0,6] + X[3,0,6] <= 1
 R643: X[1,0,7] + X[3,0,7] <= 1
 R644: X[1,0,8] + X[3,0,8] <= 1
 R645: X[1,1,0] + X[3,1,0] <= 1
 R646: X[1,1,1] + X[3,1,1] <= 1
 R647: X[1,1,2] + X[3,1,2] <= 1
 R648: X[1,1,3] + X[3,1,3] <= 1
 R649: X[1,1,4] + X[3,1,4] <= 1
 R650: X[1,1,5] + X[3,1,5] <= 1
 R651: X[1,1,6] + X[3,1,6] <= 1
 R652: X[1,1,7] + X[3,1,7] <= 1
 R653: X[1,1,8] + X[3,1,8] <= 1
 R654: X[1,2,0] + X[3,2,0] <= 1
 R655: X[1,2,1] + X[3,2,1] <= 1
 R656: X[1,2,2] + X[3,2,2] <= 1
 R657: X[1,2,3] + X[3,2,3] <= 1
 R658: X[1,2,4] + X[3,2,4] <= 1
 R659: X[1,2,5] + X[3,2,5] <= 1
 R660: X[1,2,6] + X[3,2,6] <= 1
 R661: X[1,2,7] + X[3,2,7] <= 1
 R662: X[1,2,8] + X[3,2,8] <= 1
 R663: X[1,3,0] + X[3,3,0] <= 1
 R664: X[1,3,1] + X[3,3,1] <= 1
 R665: X[1,3,2] + X[3,3,2] <= 1
 R666: X[1,3,3] + X[3,3,3] <= 1
 R667: X[1,3,4] + X[3,3,4] <= 1
 R668: X[1,3,5] + X[3,3,5] <= 1
 R669: X[1,3,6] + X[3,3,6] <= 1
 R670: X[1,3,7] + X[3,3,7] <= 1
 R671: X[1,3,8] + X[3,3,8] <= 1
 R672: X[1,4,0] + X[3,4,0] <= 1
 R673: X[1,4,1] + X[3,4,1] <= 1
 R674: X[1,4,2] + X[3,4,2] <= 1
 R675: X[1,4,3] + X[3,4,3] <= 1
 R676: X[1,4,4] + X[3,4,4] <= 1
 R677: X[1,4,5] + X[3,4,5] <= 1
 R678: X[1,4,6] + X[3,4,6] <= 1
 R679: X[1,4,7] + X[3,4,7] <= 1
 R680: X[1,4,8] + X[3,4,8] <= 1
 R681: X[1,2,0] + X[4,2,0] <= 1
 R682: X[1,2,1] + X[4,2,1] <= 1
 R683: X[1,2,2] + X[4,2,2] <= 1
 R684: X[1,2,3] + X[4,2,3] <= 1
 R685: X[1,2,4] + X[4,2,4] <= 1
 R686: X[1,2,5] + X[4,2,5] <= 1
 R687: X[1,2,6] + X[4,2,6] <= 1
 R688: X[1,2,7] + X[4,2,7] <= 1
 R689: X[1,2,8] + X[4,2,8] <= 1
 R690: X[1,3,0] + X[4,3,0] <= 1
 R691: X[1,3,1] + X[4,3,1] <= 1
 R692: X[1,3,2] + X[4,3,2] <= 1
 R693: X[1,3,3] + X[4,3,3] <= 1
 R694: X[1,3,4] + X[4,3,4] <= 1
 R695: X[1,3,5] + X[4,3,5] <= 1
 R696: X[1,3,6] + X[4,3,6] <= 1
 R697: X[1,3,7] + X[4,3,7] <= 1
 R698: X[1,3,8] + X[4,3,8] <= 1
 R699: X[0,1,0] + X[2,1,0] <= 1
 R700: X[0,1,1] + X[2,1,1] <= 1
 R701: X[0,1,2] + X[2,1,2] <= 1
 R702: X[0,1,3] + X[2,1,3] <= 1
 R703: X[0,1,4] + X[2,1,4] <= 1
 R704: X[0,1,5] + X[2,1,5] <= 1
 R705: X[0,1,6] + X[2,1,6] <= 1
 R706: X[0,1,7] + X[2,1,7] <= 1
 R707: X[0,1,8] + X[2,1,8] <= 1
 R708: X[1,0,0] + X[2,0,0] <= 1
 R709: X[1,0,1] + X[2,0,1] <= 1
 R710: X[1,0,2] + X[2,0,2] <= 1
 R711: X[1,0,3] + X[2,0,3] <= 1
 R712: X[1,0,4] + X[2,0,4] <= 1
 R713: X[1,0,5] + X[2,0,5] <= 1
 R714: X[1,0,6] + X[2,0,6] <= 1
 R715: X[1,0,7] + X[2,0,7] <= 1
 R716: X[1,0,8] + X[2,0,8] <= 1
 R717: X[1,1,0] + X[2,1,0] <= 1
 R718: X[1,1,1] + X[2,1,1] <= 1
 R719: X[1,1,2] + X[2,1,2] <= 1
 R720: X[1,1,3] + X[2,1,3] <= 1
 R721: X[1,1,4] + X[2,1,4] <= 1
 R722: X[1,1,5] + X[2,1,5] <= 1
 R723: X[1,1,6] + X[2,1,6] <= 1
 R724: X[1,1,7] + X[2,1,7] <= 1
 R725: X[1,1,8] + X[2,1,8] <= 1
 R726: X[1,3,0] + X[2,3,0] <= 1
 R727: X[1,3,1] + X[2,3,1] <= 1
 R728: X[1,3,2] + X[2,3,2] <= 1
 R729: X[1,3,3] + X[2,3,3] <= 1
 R730: X[1,3,4] + X[2,3,4] <= 1
 R731: X[1,3,5] + X[2,3,5] <= 1
 R732: X[1,3,6] + X[2,3,6] <= 1
 R733: X[1,3,7] + X[2,3,7] <= 1
 R734: X[1,3,8] + X[2,3,8] <= 1
 R735: X[1,4,0] + X[2,4,0] <= 1
 R736: X[1,4,1] + X[2,4,1] <= 1
 R737: X[1,4,2] + X[2,4,2] <= 1
 R738: X[1,4,3] + X[2,4,3] <= 1
 R739: X[1,4,4] + X[2,4,4] <= 1
 R740: X[1,4,5] + X[2,4,5] <= 1
 R741: X[1,4,6] + X[2,4,6] <= 1
 R742: X[1,4,7] + X[2,4,7] <= 1
 R743: X[1,4,8] + X[2,4,8] <= 1
 R744: X[2,0,0] + X[3,0,0] <= 1
 R745: X[2,0,1] + X[3,0,1] <= 1
 R746: X[2,0,2] + X[3,0,2] <= 1
 R747: X[2,0,3] + X[3,0,3] <= 1
 R748: X[2,0,4] + X[3,0,4] <= 1
 R749: X[2,0,5] + X[3,0,5] <= 1
 R750: X[2,0,6] + X[3,0,6] <= 1
 R751: X[2,0,7] + X[3,0,7] <= 1
 R752: X[2,0,8] + X[3,0,8] <= 1
 R753: X[2,1,0] + X[3,1,0] <= 1
 R754: X[2,1,1] + X[3,1,1] <= 1
 R755: X[2,1,2] + X[3,1,2] <= 1
 R756: X[2,1,3] + X[3,1,3] <= 1
 R757: X[2,1,4] + X[3,1,4] <= 1
 R758: X[2,1,5] + X[3,1,5] <= 1
 R759: X[2,1,6] + X[3,1,6] <= 1
 R760: X[2,1,7] + X[3,1,7] <= 1
 R761: X[2,1,8] + X[3,1,8] <= 1
 R762: X[2,3,0] + X[3,3,0] <= 1
 R763: X[2,3,1] + X[3,3,1] <= 1
 R764: X[2,3,2] + X[3,3,2] <= 1
 R765: X[2,3,3] + X[3,3,3] <= 1
 R766: X[2,3,4] + X[3,3,4] <= 1
 R767: X[2,3,5] + X[3,3,5] <= 1
 R768: X[2,3,6] + X[3,3,6] <= 1
 R769: X[2,3,7] + X[3,3,7] <= 1
 R770: X[2,3,8] + X[3,3,8] <= 1
 R771: X[2,4,0] + X[3,4,0] <= 1
 R772: X[2,4,1] + X[3,4,1] <= 1
 R773: X[2,4,2] + X[3,4,2] <= 1
 R774: X[2,4,3] + X[3,4,3] <= 1
 R775: X[2,4,4] + X[3,4,4] <= 1
 R776: X[2,4,5] + X[3,4,5] <= 1
 R777: X[2,4,6] + X[3,4,6] <= 1
 R778: X[2,4,7] + X[3,4,7] <= 1
 R779: X[2,4,8] + X[3,4,8] <= 1
 R780: X[2,3,0] + X[4,3,0] <= 1
 R781: X[2,3,1] + X[4,3,1] <= 1
 R782: X[2,3,2] + X[4,3,2] <= 1
 R783: X[2,3,3] + X[4,3,3] <= 1
 R784: X[2,3,4] + X[4,3,4] <= 1
 R785: X[2,3,5] + X[4,3,5] <= 1
 R786: X[2,3,6] + X[4,3,6] <= 1
 R787: X[2,3,7] + X[4,3,7] <= 1
 R788: X[2,3,8] + X[4,3,8] <= 1
 R789: X[0,1,0] + X[3,1,0] <= 1
 R790: X[0,1,1] + X[3,1,1] <= 1
 R791: X[0,1,2] + X[3,1,2] <= 1
 R792: X[0,1,3] + X[3,1,3] <= 1
 R793: X[0,1,4] + X[3,1,4] <= 1
 R794: X[0,1,5] + X[3,1,5] <= 1
 R795: X[0,1,6] + X[3,1,6] <= 1
 R796: X[0,1,7] + X[3,1,7] <= 1
 R797: X[0,1,8] + X[3,1,8] <= 1
 R798: X[0,2,0] + X[3,2,0] <= 1
 R799: X[0,2,1] + X[3,2,1] <= 1
 R800: X[0,2,2] + X[3,2,2] <= 1
 R801: X[0,2,3] + X[3,2,3] <= 1
 R802: X[0,2,4] + X[3,2,4] <= 1
 R803: X[0,2,5] + X[3,2,5] <= 1
 R804: X[0,2,6] + X[3,2,6] <= 1
 R805: X[0,2,7] + X[3,2,7] <= 1
 R806: X[0,2,8] + X[3,2,8] <= 1
 R807: X[1,0,0] + X[3,0,0] <= 1
 R808: X[1,0,1] + X[3,0,1] <= 1
 R809: X[1,0,2] + X[3,0,2] <= 1
 R810: X[1,0,3] + X[3,0,3] <= 1
 R811: X[1,0,4] + X[3,0,4] <= 1
 R812: X[1,0,5] + X[3,0,5] <= 1
 R813: X[1,0,6] + X[3,0,6] <= 1
 R814: X[1,0,7] + X[3,0,7] <= 1
 R815: X[1,0,8] + X[3,0,8] <= 1
 R816: X[1,1,0] + X[3,1,0] <= 1
 R817: X[1,1,1] + X[3,1,1] <= 1
 R818: X[1,1,2] + X[3,1,2] <= 1
 R819: X[1,1,3] + X[3,1,3] <= 1
 R820: X[1,1,4] + X[3,1,4] <= 1
 R821: X[1,1,5] + X[3,1,5] <= 1
 R822: X[1,1,6] + X[3,1,6] <= 1
 R823: X[1,1,7] + X[3,1,7] <= 1
 R824: X[1,1,8] + X[3,1,8] <= 1
 R825: X[1,2,0] + X[3,2,0] <= 1
 R826: X[1,2,1] + X[3,2,1] <= 1
 R827: X[1,2,2] + X[3,2,2] <= 1
 R828: X[1,2,3] + X[3,2,3] <= 1
 R829: X[1,2,4] + X[3,2,4] <= 1
 R830: X[1,2,5] + X[3,2,5] <= 1
 R831: X[1,2,6] + X[3,2,6] <= 1
 R832: X[1,2,7] + X[3,2,7] <= 1
 R833: X[1,2,8] + X[3,2,8] <= 1
 R834: X[1,3,0] + X[3,3,0] <= 1
 R835: X[1,3,1] + X[3,3,1] <= 1
 R836: X[1,3,2] + X[3,3,2] <= 1
 R837: X[1,3,3] + X[3,3,3] <= 1
 R838: X[1,3,4] + X[3,3,4] <= 1
 R839: X[1,3,5] + X[3,3,5] <= 1
 R840: X[1,3,6] + X[3,3,6] <= 1
 R841: X[1,3,7] + X[3,3,7] <= 1
 R842: X[1,3,8] + X[3,3,8] <= 1
 R843: X[1,4,0] + X[3,4,0] <= 1
 R844: X[1,4,1] + X[3,4,1] <= 1
 R845: X[1,4,2] + X[3,4,2] <= 1
 R846: X[1,4,3] + X[3,4,3] <= 1
 R847: X[1,4,4] + X[3,4,4] <= 1
 R848: X[1,4,5] + X[3,4,5] <= 1
 R849: X[1,4,6] + X[3,4,6] <= 1
 R850: X[1,4,7] + X[3,4,7] <= 1
 R851: X[1,4,8] + X[3,4,8] <= 1
 R852: X[2,0,0] + X[3,0,0] <= 1
 R853: X[2,0,1] + X[3,0,1] <= 1
 R854: X[2,0,2] + X[3,0,2] <= 1
 R855: X[2,0,3] + X[3,0,3] <= 1
 R856: X[2,0,4] + X[3,0,4] <= 1
 R857: X[2,0,5] + X[3,0,5] <= 1
 R858: X[2,0,6] + X[3,0,6] <= 1
 R859: X[2,0,7] + X[3,0,7] <= 1
 R860: X[2,0,8] + X[3,0,8] <= 1
 R861: X[2,1,0] + X[3,1,0] <= 1
 R862: X[2,1,1] + X[3,1,1] <= 1
 R863: X[2,1,2] + X[3,1,2] <= 1
 R864: X[2,1,3] + X[3,1,3] <= 1
 R865: X[2,1,4] + X[3,1,4] <= 1
 R866: X[2,1,5] + X[3,1,5] <= 1
 R867: X[2,1,6] + X[3,1,6] <= 1
 R868: X[2,1,7] + X[3,1,7] <= 1
 R869: X[2,1,8] + X[3,1,8] <= 1
 R870: X[2,3,0] + X[3,3,0] <= 1
 R871: X[2,3,1] + X[3,3,1] <= 1
 R872: X[2,3,2] + X[3,3,2] <= 1
 R873: X[2,3,3] + X[3,3,3] <= 1
 R874: X[2,3,4] + X[3,3,4] <= 1
 R875: X[2,3,5] + X[3,3,5] <= 1
 R876: X[2,3,6] + X[3,3,6] <= 1
 R877: X[2,3,7] + X[3,3,7] <= 1
 R878: X[2,3,8] + X[3,3,8] <= 1
 R879: X[2,4,0] + X[3,4,0] <= 1
 R880: X[2,4,1] + X[3,4,1] <= 1
 R881: X[2,4,2] + X[3,4,2] <= 1
 R882: X[2,4,3] + X[3,4,3] <= 1
 R883: X[2,4,4] + X[3,4,4] <= 1
 R884: X[2,4,5] + X[3,4,5] <= 1
 R885: X[2,4,6] + X[3,4,6] <= 1
 R886: X[2,4,7] + X[3,4,7] <= 1
 R887: X[2,4,8] + X[3,4,8] <= 1
 R888: X[3,2,0] + X[4,2,0] <= 1
 R889: X[3,2,1] + X[4,2,1] <= 1
 R890: X[3,2,2] + X[4,2,2] <= 1
 R891: X[3,2,3] + X[4,2,3] <= 1
 R892: X[3,2,4] + X[4,2,4] <= 1
 R893: X[3,2,5] + X[4,2,5] <= 1
 R894: X[3,2,6] + X[4,2,6] <= 1
 R895: X[3,2,7] + X[4,2,7] <= 1
 R896: X[3,2,8] + X[4,2,8] <= 1
 R897: X[3,3,0] + X[4,3,0] <= 1
 R898: X[3,3,1] + X[4,3,1] <= 1
 R899: X[3,3,2] + X[4,3,2] <= 1
 R900: X[3,3,3] + X[4,3,3] <= 1
 R901: X[3,3,4] + X[4,3,4] <= 1
 R902: X[3,3,5] + X[4,3,5] <= 1
 R903: X[3,3,6] + X[4,3,6] <= 1
 R904: X[3,3,7] + X[4,3,7] <= 1
 R905: X[3,3,8] + X[4,3,8] <= 1
 R906: X[0,2,0] + X[4,2,0] <= 1
 R907: X[0,2,1] + X[4,2,1] <= 1
 R908: X[0,2,2] + X[4,2,2] <= 1
 R909: X[0,2,3] + X[4,2,3] <= 1
 R910: X[0,2,4] + X[4,2,4] <= 1
 R911: X[0,2,5] + X[4,2,5] <= 1
 R912: X[0,2,6] + X[4,2,6] <= 1
 R913: X[0,2,7] + X[4,2,7] <= 1
 R914: X[0,2,8] + X[4,2,8] <= 1
 R915: X[1,2,0] + X[4,2,0] <= 1
 R916: X[1,2,1] + X[4,2,1] <= 1
 R917: X[1,2,2] + X[4,2,2] <= 1
 R918: X[1,2,3] + X[4,2,3] <= 1
 R919: X[1,2,4] + X[4,2,4] <= 1
 R920: X[1,2,5] + X[4,2,5] <= 1
 R921: X[1,2,6] + X[4,2,6] <= 1
 R922: X[1,2,7] + X[4,2,7] <= 1
 R923: X[1,2,8] + X[4,2,8] <= 1
 R924: X[1,3,0] + X[4,3,0] <= 1
 R925: X[1,3,1] + X[4,3,1] <= 1
 R926: X[1,3,2] + X[4,3,2] <= 1
 R927: X[1,3,3] + X[4,3,3] <= 1
 R928: X[1,3,4] + X[4,3,4] <= 1
 R929: X[1,3,5] + X[4,3,5] <= 1
 R930: X[1,3,6] + X[4,3,6] <= 1
 R931: X[1,3,7] + X[4,3,7] <= 1
 R932: X[1,3,8] + X[4,3,8] <= 1
 R933: X[2,3,0] + X[4,3,0] <= 1
 R934: X[2,3,1] + X[4,3,1] <= 1
 R935: X[2,3,2] + X[4,3,2] <= 1
 R936: X[2,3,3] + X[4,3,3] <= 1
 R937: X[2,3,4] + X[4,3,4] <= 1
 R938: X[2,3,5] + X[4,3,5] <= 1
 R939: X[2,3,6] + X[4,3,6] <= 1
 R940: X[2,3,7] + X[4,3,7] <= 1
 R941: X[2,3,8] + X[4,3,8] <= 1
 R942: X[3,2,0] + X[4,2,0] <= 1
 R943: X[3,2,1] + X[4,2,1] <= 1
 R944: X[3,2,2] + X[4,2,2] <= 1
 R945: X[3,2,3] + X[4,2,3] <= 1
 R946: X[3,2,4] + X[4,2,4] <= 1
 R947: X[3,2,5] + X[4,2,5] <= 1
 R948: X[3,2,6] + X[4,2,6] <= 1
 R949: X[3,2,7] + X[4,2,7] <= 1
 R950: X[3,2,8] + X[4,2,8] <= 1
 R951: X[3,3,0] + X[4,3,0] <= 1
 R952: X[3,3,1] + X[4,3,1] <= 1
 R953: X[3,3,2] + X[4,3,2] <= 1
 R954: X[3,3,3] + X[4,3,3] <= 1
 R955: X[3,3,4] + X[4,3,4] <= 1
 R956: X[3,3,5] + X[4,3,5] <= 1
 R957: X[3,3,6] + X[4,3,6] <= 1
 R958: X[3,3,7] + X[4,3,7] <= 1
 R959: X[3,3,8] + X[4,3,8] <= 1
 V_SUM[0,1]: X[0,1,0] + 2 X[0,1,1] + 3 X[0,1,2] + 4 X[0,1,3] + 5 X[0,1,4]
   + 6 X[0,1,5] + 7 X[0,1,6] + 8 X[0,1,7] + 9 X[0,1,8] + X[1,1,0]
   + 2 X[1,1,1] + 3 X[1,1,2] + 4 X[1,1,3] + 5 X[1,1,4] + 6 X[1,1,5]
   + 7 X[1,1,6] + 8 X[1,1,7] + 9 X[1,1,8] + X[2,1,0] + 2 X[2,1,1]
   + 3 X[2,1,2] + 4 X[2,1,3] + 5 X[2,1,4] + 6 X[2,1,5] + 7 X[2,1,6]
   + 8 X[2,1,7] + 9 X[2,1,8] + X[3,1,0] + 2 X[3,1,1] + 3 X[3,1,2]
   + 4 X[3,1,3] + 5 X[3,1,4] + 6 X[3,1,5] + 7 X[3,1,6] + 8 X[3,1,7]
   + 9 X[3,1,8] = 10
 V_SUM[0,2]: X[0,2,0] + 2 X[0,2,1] + 3 X[0,2,2] + 4 X[0,2,3] + 5 X[0,2,4]
   + 6 X[0,2,5] + 7 X[0,2,6] + 8 X[0,2,7] + 9 X[0,2,8] + X[1,2,0]
   + 2 X[1,2,1] + 3 X[1,2,2] + 4 X[1,2,3] + 5 X[1,2,4] + 6 X[1,2,5]
   + 7 X[1,2,6] + 8 X[1,2,7] + 9 X[1,2,8] = 4
 V_SUM[1,0]: X[1,0,0] + 2 X[1,0,1] + 3 X[1,0,2] + 4 X[1,0,3] + 5 X[1,0,4]
   + 6 X[1,0,5] + 7 X[1,0,6] + 8 X[1,0,7] + 9 X[1,0,8] + X[2,0,0]
   + 2 X[2,0,1] + 3 X[2,0,2] + 4 X[2,0,3] + 5 X[2,0,4] + 6 X[2,0,5]
   + 7 X[2,0,6] + 8 X[2,0,7] + 9 X[2,0,8] + X[3,0,0] + 2 X[3,0,1]
   + 3 X[3,0,2] + 4 X[3,0,3] + 5 X[3,0,4] + 6 X[3,0,5] + 7 X[3,0,6]
   + 8 X[3,0,7] + 9 X[3,0,8] = 7
 V_SUM[1,3]: X[1,3,0] + 2 X[1,3,1] + 3 X[1,3,2] + 4 X[1,3,3] + 5 X[1,3,4]
   + 6 X[1,3,5] + 7 X[1,3,6] + 8 X[1,3,7] + 9 X[1,3,8] + X[2,3,0]
   + 2 X[2,3,1] + 3 X[2,3,2] + 4 X[2,3,3] + 5 X[2,3,4] + 6 X[2,3,5]
   + 7 X[2,3,6] + 8 X[2,3,7] + 9 X[2,3,8] + X[3,3,0] + 2 X[3,3,1]
   + 3 X[3,3,2] + 4 X[3,3,3] + 5 X[3,3,4] + 6 X[3,3,5] + 7 X[3,3,6]
   + 8 X[3,3,7] + 9 X[3,3,8] + X[4,3,0] + 2 X[4,3,1] + 3 X[4,3,2]
   + 4 X[4,3,3] + 5 X[4,3,4] + 6 X[4,3,5] + 7 X[4,3,6] + 8 X[4,3,7]
   + 9 X[4,3,8] = 30
 V_SUM[1,4]: X[1,4,0] + 2 X[1,4,1] + 3 X[1,4,2] + 4 X[1,4,3] + 5 X[1,4,4]
   + 6 X[1,4,5] + 7 X[1,4,6] + 8 X[1,4,7] + 9 X[1,4,8] + X[2,4,0]
   + 2 X[2,4,1] + 3 X[2,4,2] + 4 X[2,4,3] + 5 X[2,4,4] + 6 X[2,4,5]
   + 7 X[2,4,6] + 8 X[2,4,7] + 9 X[2,4,8] + X[3,4,0] + 2 X[3,4,1]
   + 3 X[3,4,2] + 4 X[3,4,3] + 5 X[3,4,4] + 6 X[3,4,5] + 7 X[3,4,6]
   + 8 X[3,4,7] + 9 X[3,4,8] = 8
 V_SUM[3,2]: X[3,2,0] + 2 X[3,2,1] + 3 X[3,2,2] + 4 X[3,2,3] + 5 X[3,2,4]
   + 6 X[3,2,5] + 7 X[3,2,6] + 8 X[3,2,7] + 9 X[3,2,8] + X[4,2,0]
   + 2 X[4,2,1] + 3 X[4,2,2] + 4 X[4,2,3] + 5 X[4,2,4] + 6 X[4,2,5]
   + 7 X[4,2,6] + 8 X[4,2,7] + 9 X[4,2,8] = 9
Bounds
Binaries
 X[0,0,0] X[0,0,1] X[0,0,2] X[0,0,3] X[0,0,4] X[0,0,5] X[0,0,6] X[0,0,7]
 X[0,0,8] X[0,1,0] X[0,1,1] X[0,1,2] X[0,1,3] X[0,1,4] X[0,1,5] X[0,1,6]
 X[0,1,7] X[0,1,8] X[0,2,0] X[0,2,1] X[0,2,2] X[0,2,3] X[0,2,4] X[0,2,5]
 X[0,2,6] X[0,2,7] X[0,2,8] X[0,3,0] X[0,3,1] X[0,3,2] X[0,3,3] X[0,3,4]
 X[0,3,5] X[0,3,6] X[0,3,7] X[0,3,8] X[0,4,0] X[0,4,1] X[0,4,2] X[0,4,3]
 X[0,4,4] X[0,4,5] X[0,4,6] X[0,4,7] X[0,4,8] X[1,0,0] X[1,0,1] X[1,0,2]
 X[1,0,3] X[1,0,4] X[1,0,5] X[1,0,6] X[1,0,7] X[1,0,8] X[1,1,0] X[1,1,1]
 X[1,1,2] X[1,1,3] X[1,1,4] X[1,1,5] X[1,1,6] X[1,1,7] X[1,1,8] X[1,2,0]
 X[1,2,1] X[1,2,2] X[1,2,3] X[1,2,4] X[1,2,5] X[1,2,6] X[1,2,7] X[1,2,8]
 X[1,3,0] X[1,3,1] X[1,3,2] X[1,3,3] X[1,3,4] X[1,3,5] X[1,3,6] X[1,3,7]
 X[1,3,8] X[1,4,0] X[1,4,1] X[1,4,2] X[1,4,3] X[1,4,4] X[1,4,5] X[1,4,6]
 X[1,4,7] X[1,4,8] X[2,0,0] X[2,0,1] X[2,0,2] X[2,0,3] X[2,0,4] X[2,0,5]
 X[2,0,6] X[2,0,7] X[2,0,8] X[2,1,0] X[2,1,1] X[2,1,2] X[2,1,3] X[2,1,4]
 X[2,1,5] X[2,1,6] X[2,1,7] X[2,1,8] X[2,2,0] X[2,2,1] X[2,2,2] X[2,2,3]
 X[2,2,4] X[2,2,5] X[2,2,6] X[2,2,7] X[2,2,8] X[2,3,0] X[2,3,1] X[2,3,2]
 X[2,3,3] X[2,3,4] X[2,3,5] X[2,3,6] X[2,3,7] X[2,3,8] X[2,4,0] X[2,4,1]
 X[2,4,2] X[2,4,3] X[2,4,4] X[2,4,5] X[2,4,6] X[2,4,7] X[2,4,8] X[3,0,0]
 X[3,0,1] X[3,0,2] X[3,0,3] X[3,0,4] X[3,0,5] X[3,0,6] X[3,0,7] X[3,0,8]
 X[3,1,0] X[3,1,1] X[3,1,2] X[3,1,3] X[3,1,4] X[3,1,5] X[3,1,6] X[3,1,7]
 X[3,1,8] X[3,2,0] X[3,2,1] X[3,2,2] X[3,2,3] X[3,2,4] X[3,2,5] X[3,2,6]
 X[3,2,7] X[3,2,8] X[3,3,0] X[3,3,1] X[3,3,2] X[3,3,3] X[3,3,4] X[3,3,5]
 X[3,3,6] X[3,3,7] X[3,3,8] X[3,4,0] X[3,4,1] X[3,4,2] X[3,4,3] X[3,4,4]
 X[3,4,5] X[3,4,6] X[3,4,7] X[3,4,8] X[4,0,0] X[4,0,1] X[4,0,2] X[4,0,3]
 X[4,0,4] X[4,0,5] X[4,0,6] X[4,0,7] X[4,0,8] X[4,1,0] X[4,1,1] X[4,1,2]
 X[4,1,3] X[4,1,4] X[4,1,5] X[4,1,6] X[4,1,7] X[4,1,8] X[4,2,0] X[4,2,1]
 X[4,2,2] X[4,2,3] X[4,2,4] X[4,2,5] X[4,2,6] X[4,2,7] X[4,2,8] X[4,3,0]
 X[4,3,1] X[4,3,2] X[4,3,3] X[4,3,4] X[4,3,5] X[4,3,6] X[4,3,7] X[4,3,8]
 X[4,4,0] X[4,4,1] X[4,4,2] X[4,4,3] X[4,4,4] X[4,4,5] X[4,4,6] X[4,4,7]
 X[4,4,8]
End
